c colouring generated by benchmark framework
p edge 144 2596
v 1 11
v 2 6
v 3 12
v 4 13
v 5 8
v 6 1
v 7 10
v 8 14
v 9 5
v 10 4
v 11 7
v 12 9
v 13 2
v 14 4
v 15 3
v 16 9
v 17 11
v 18 5
v 19 8
v 20 7
v 21 1
v 22 12
v 23 6
v 24 14
v 25 13
v 26 10
v 27 1
v 28 12
v 29 4
v 30 6
v 31 2
v 32 9
v 33 11
v 34 8
v 35 15
v 36 7
v 37 5
v 38 7
v 39 15
v 40 8
v 41 2
v 42 3
v 43 0
v 44 1
v 45 10
v 46 6
v 47 11
v 48 13
v 49 3
v 50 13
v 51 9
v 52 5
v 53 0
v 54 8
v 55 6
v 56 12
v 57 4
v 58 15
v 59 2
v 60 10
v 61 8
v 62 1
v 63 11
v 64 14
v 65 7
v 66 9
v 67 4
v 68 10
v 69 3
v 70 0
v 71 13
v 72 12
v 73 6
v 74 9
v 75 4
v 76 2
v 77 10
v 78 11
v 79 13
v 80 0
v 81 7
v 82 1
v 83 3
v 84 5
v 85 7
v 86 12
v 87 10
v 88 0
v 89 1
v 90 2
v 91 14
v 92 3
v 93 15
v 94 5
v 95 8
v 96 6
v 97 9
v 98 11
v 99 2
v 100 3
v 101 5
v 102 4
v 103 1
v 104 8
v 105 6
v 106 7
v 107 14
v 108 15
v 109 15
v 110 5
v 111 13
v 112 7
v 113 6
v 114 12
v 115 3
v 116 4
v 117 0
v 118 10
v 119 9
v 120 1
v 121 4
v 122 14
v 123 0
v 124 10
v 125 15
v 126 7
v 127 9
v 128 6
v 129 8
v 130 3
v 131 5
v 132 11
v 133 0
v 134 3
v 135 5
v 136 4
v 137 9
v 138 10
v 139 15
v 140 13
v 141 12
v 142 11
v 143 1
v 144 2
